60
1 0 3
2 0 5
2 1 4
3 0 5
3 1 1
3 2 8
4 0 8
4 1 3
4 2 1
4 3 2
5 0 1
5 1 1
5 2 6
5 3 2
5 4 4
6 0 6
6 1 5
6 2 8
6 3 1
6 4 5
6 5 2
7 0 2
7 1 1
7 2 2
7 3 1
7 4 4
7 5 8
7 6 4
8 0 4
8 1 2
8 2 2
8 3 7
8 4 4
8 5 3
8 6 8
8 7 1
9 0 5
9 1 6
9 2 1
9 3 2
9 4 3
9 5 1
9 6 1
9 7 8
9 8 6
10 0 2
10 1 6
10 2 2
10 3 7
10 4 6
10 5 3
10 6 6
10 7 7
10 8 4
10 9 5
11 0 1
11 1 8
11 2 5
11 3 1
11 4 4
11 5 3
11 6 4
11 7 3
11 8 1
11 9 4
11 10 3
12 0 2
12 1 4
12 2 2
12 3 8
12 4 6
12 5 4
12 6 3
12 7 7
12 8 5
12 9 8
12 10 3
12 11 4
13 0 5
13 1 4
13 2 1
13 3 3
13 4 1
13 5 1
13 6 8
13 7 3
13 8 8
13 9 7
13 10 4
13 11 5
13 12 4
14 0 1
14 1 5
14 2 1
14 3 5
14 4 3
14 5 2
14 6 7
14 7 8
14 8 8
14 9 8
14 10 6
14 11 2
14 12 5
14 13 2
15 0 6
15 1 5
15 2 3
15 3 2
15 4 2
15 5 7
15 6 5
15 7 7
15 8 7
15 9 2
15 10 5
15 11 8
15 12 5
15 13 2
15 14 5
16 0 4
16 1 2
16 2 7
16 3 5
16 4 1
16 5 4
16 6 1
16 7 4
16 8 8
16 9 7
16 10 1
16 11 4
16 12 2
16 13 3
16 14 4
16 15 6
17 0 6
17 1 1
17 2 3
17 3 4
17 4 7
17 5 2
17 6 6
17 7 3
17 8 5
17 9 1
17 10 4
17 11 2
17 12 2
17 13 6
17 14 3
17 15 1
17 16 2
18 0 6
18 1 2
18 2 7
18 3 5
18 4 4
18 5 3
18 6 3
18 7 1
18 8 1
18 9 8
18 10 6
18 11 5
18 12 3
18 13 2
18 14 6
18 15 1
18 16 2
18 17 8
19 0 4
19 1 3
19 2 2
19 3 6
19 4 4
19 5 3
19 6 2
19 7 8
19 8 4
19 9 4
19 10 4
19 11 6
19 12 7
19 13 2
19 14 3
19 15 8
19 16 3
19 17 6
19 18 1
20 0 1
20 1 7
20 2 6
20 3 3
20 4 4
20 5 4
20 6 8
20 7 8
20 8 3
20 9 4
20 10 4
20 11 4
20 12 4
20 13 2
20 14 5
20 15 2
20 16 4
20 17 8
20 18 4
20 19 3
21 0 6
21 1 8
21 2 5
21 3 5
21 4 5
21 5 3
21 6 8
21 7 6
21 8 5
21 9 2
21 10 5
21 11 8
21 12 4
21 13 4
21 14 6
21 15 1
21 16 7
21 17 8
21 18 1
21 19 1
21 20 7
22 0 4
22 1 5
22 2 6
22 3 2
22 4 3
22 5 6
22 6 6
22 7 1
22 8 6
22 9 1
22 10 3
22 11 6
22 12 2
22 13 4
22 14 7
22 15 8
22 16 8
22 17 4
22 18 1
22 19 2
22 20 6
22 21 5
23 0 3
23 1 3
23 2 7
23 3 2
23 4 7
23 5 1
23 6 6
23 7 6
23 8 8
23 9 1
23 10 3
23 11 8
23 12 7
23 13 6
23 14 2
23 15 6
23 16 5
23 17 6
23 18 3
23 19 7
23 20 8
23 21 5
23 22 6
24 0 5
24 1 1
24 2 1
24 3 8
24 4 4
24 5 7
24 6 1
24 7 5
24 8 6
24 9 8
24 10 3
24 11 4
24 12 5
24 13 2
24 14 1
24 15 5
24 16 4
24 17 7
24 18 8
24 19 7
24 20 2
24 21 6
24 22 2
24 23 3
25 0 5
25 1 1
25 2 3
25 3 6
25 4 1
25 5 4
25 6 1
25 7 1
25 8 6
25 9 7
25 10 4
25 11 8
25 12 7
25 13 8
25 14 5
25 15 6
25 16 3
25 17 2
25 18 2
25 19 8
25 20 6
25 21 7
25 22 1
25 23 1
25 24 7
26 0 8
26 1 3
26 2 5
26 3 6
26 4 2
26 5 1
26 6 2
26 7 5
26 8 3
26 9 7
26 10 1
26 11 7
26 12 7
26 13 1
26 14 3
26 15 8
26 16 6
26 17 4
26 18 5
26 19 3
26 20 1
26 21 8
26 22 1
26 23 6
26 24 5
26 25 2
27 0 2
27 1 5
27 2 8
27 3 3
27 4 1
27 5 8
27 6 6
27 7 1
27 8 5
27 9 7
27 10 5
27 11 6
27 12 1
27 13 3
27 14 6
27 15 1
27 16 4
27 17 3
27 18 6
27 19 5
27 20 3
27 21 4
27 22 4
27 23 1
27 24 2
27 25 8
27 26 6
28 0 6
28 1 7
28 2 5
28 3 3
28 4 8
28 5 3
28 6 6
28 7 4
28 8 3
28 9 2
28 10 5
28 11 2
28 12 3
28 13 1
28 14 4
28 15 8
28 16 6
28 17 7
28 18 4
28 19 5
28 20 4
28 21 1
28 22 2
28 23 6
28 24 4
28 25 4
28 26 4
28 27 7
29 0 3
29 1 5
29 2 1
29 3 5
29 4 8
29 5 8
29 6 3
29 7 2
29 8 8
29 9 6
29 10 4
29 11 8
29 12 1
29 13 6
29 14 6
29 15 4
29 16 7
29 17 4
29 18 3
29 19 2
29 20 6
29 21 1
29 22 4
29 23 3
29 24 2
29 25 2
29 26 5
29 27 1
29 28 5
30 0 7
30 1 7
30 2 8
30 3 1
30 4 6
30 5 2
30 6 7
30 7 3
30 8 2
30 9 5
30 10 4
30 11 1
30 12 8
30 13 4
30 14 5
30 15 7
30 16 5
30 17 8
30 18 8
30 19 2
30 20 8
30 21 2
30 22 7
30 23 7
30 24 1
30 25 6
30 26 5
30 27 6
30 28 8
30 29 4
31 0 2
31 1 2
31 2 6
31 3 1
31 4 4
31 5 2
31 6 6
31 7 2
31 8 1
31 9 8
31 10 2
31 11 5
31 12 3
31 13 1
31 14 4
31 15 8
31 16 7
31 17 8
31 18 7
31 19 3
31 20 2
31 21 7
31 22 7
31 23 7
31 24 6
31 25 4
31 26 3
31 27 3
31 28 3
31 29 3
31 30 7
32 0 7
32 1 5
32 2 5
32 3 5
32 4 4
32 5 8
32 6 6
32 7 1
32 8 6
32 9 2
32 10 5
32 11 2
32 12 3
32 13 7
32 14 4
32 15 2
32 16 5
32 17 4
32 18 2
32 19 2
32 20 7
32 21 5
32 22 6
32 23 8
32 24 7
32 25 4
32 26 4
32 27 6
32 28 3
32 29 5
32 30 2
32 31 4
33 0 1
33 1 5
33 2 6
33 3 2
33 4 6
33 5 5
33 6 5
33 7 7
33 8 3
33 9 8
33 10 7
33 11 7
33 12 6
33 13 7
33 14 6
33 15 1
33 16 1
33 17 4
33 18 1
33 19 6
33 20 5
33 21 4
33 22 3
33 23 3
33 24 4
33 25 4
33 26 8
33 27 6
33 28 2
33 29 4
33 30 8
33 31 6
33 32 8
34 0 8
34 1 4
34 2 7
34 3 4
34 4 3
34 5 1
34 6 5
34 7 8
34 8 3
34 9 8
34 10 5
34 11 7
34 12 8
34 13 7
34 14 5
34 15 3
34 16 3
34 17 3
34 18 7
34 19 1
34 20 1
34 21 6
34 22 7
34 23 7
34 24 1
34 25 1
34 26 3
34 27 6
34 28 7
34 29 5
34 30 1
34 31 3
34 32 5
34 33 7
35 0 1
35 1 5
35 2 3
35 3 2
35 4 7
35 5 4
35 6 2
35 7 8
35 8 7
35 9 3
35 10 2
35 11 4
35 12 4
35 13 5
35 14 7
35 15 2
35 16 7
35 17 2
35 18 3
35 19 7
35 20 6
35 21 1
35 22 1
35 23 4
35 24 3
35 25 5
35 26 4
35 27 7
35 28 4
35 29 6
35 30 7
35 31 4
35 32 1
35 33 6
35 34 5
36 0 5
36 1 8
36 2 8
36 3 2
36 4 3
36 5 5
36 6 2
36 7 4
36 8 1
36 9 1
36 10 7
36 11 5
36 12 8
36 13 1
36 14 2
36 15 6
36 16 3
36 17 8
36 18 4
36 19 7
36 20 1
36 21 7
36 22 2
36 23 8
36 24 3
36 25 7
36 26 8
36 27 1
36 28 6
36 29 3
36 30 8
36 31 1
36 32 5
36 33 6
36 34 2
36 35 8
37 0 6
37 1 7
37 2 1
37 3 6
37 4 8
37 5 3
37 6 6
37 7 3
37 8 3
37 9 6
37 10 5
37 11 3
37 12 7
37 13 3
37 14 1
37 15 3
37 16 3
37 17 5
37 18 5
37 19 2
37 20 8
37 21 4
37 22 6
37 23 6
37 24 5
37 25 4
37 26 6
37 27 2
37 28 3
37 29 5
37 30 7
37 31 2
37 32 5
37 33 7
37 34 1
37 35 5
37 36 3
38 0 5
38 1 1
38 2 7
38 3 7
38 4 7
38 5 7
38 6 4
38 7 7
38 8 5
38 9 4
38 10 6
38 11 1
38 12 2
38 13 7
38 14 8
38 15 1
38 16 7
38 17 1
38 18 4
38 19 4
38 20 3
38 21 3
38 22 4
38 23 4
38 24 4
38 25 3
38 26 1
38 27 2
38 28 5
38 29 8
38 30 5
38 31 2
38 32 2
38 33 3
38 34 6
38 35 2
38 36 7
38 37 8
39 0 1
39 1 2
39 2 8
39 3 3
39 4 3
39 5 1
39 6 7
39 7 7
39 8 4
39 9 7
39 10 3
39 11 1
39 12 3
39 13 4
39 14 6
39 15 3
39 16 2
39 17 6
39 18 4
39 19 6
39 20 3
39 21 3
39 22 3
39 23 2
39 24 6
39 25 7
39 26 3
39 27 2
39 28 7
39 29 5
39 30 1
39 31 3
39 32 3
39 33 3
39 34 1
39 35 5
39 36 2
39 37 4
39 38 6
40 0 7
40 1 8
40 2 8
40 3 1
40 4 1
40 5 4
40 6 5
40 7 6
40 8 8
40 9 1
40 10 4
40 11 3
40 12 4
40 13 7
40 14 5
40 15 7
40 16 3
40 17 6
40 18 7
40 19 5
40 20 4
40 21 6
40 22 6
40 23 4
40 24 5
40 25 3
40 26 3
40 27 4
40 28 7
40 29 5
40 30 1
40 31 7
40 32 4
40 33 2
40 34 5
40 35 3
40 36 2
40 37 5
40 38 5
40 39 6
41 0 4
41 1 4
41 2 1
41 3 3
41 4 4
41 5 1
41 6 4
41 7 5
41 8 4
41 9 4
41 10 2
41 11 7
41 12 7
41 13 3
41 14 8
41 15 7
41 16 8
41 17 3
41 18 3
41 19 4
41 20 7
41 21 5
41 22 1
41 23 4
41 24 4
41 25 1
41 26 3
41 27 8
41 28 4
41 29 2
41 30 7
41 31 4
41 32 6
41 33 1
41 34 2
41 35 5
41 36 2
41 37 2
41 38 4
41 39 8
41 40 5
42 0 7
42 1 2
42 2 1
42 3 3
42 4 5
42 5 3
42 6 5
42 7 4
42 8 5
42 9 6
42 10 1
42 11 7
42 12 5
42 13 8
42 14 3
42 15 8
42 16 3
42 17 1
42 18 2
42 19 6
42 20 1
42 21 1
42 22 7
42 23 2
42 24 1
42 25 4
42 26 3
42 27 1
42 28 3
42 29 8
42 30 4
42 31 2
42 32 1
42 33 6
42 34 7
42 35 6
42 36 2
42 37 4
42 38 7
42 39 5
42 40 2
42 41 4
43 0 5
43 1 2
43 2 2
43 3 4
43 4 2
43 5 7
43 6 2
43 7 1
43 8 1
43 9 4
43 10 3
43 11 7
43 12 7
43 13 1
43 14 5
43 15 4
43 16 5
43 17 7
43 18 4
43 19 6
43 20 4
43 21 3
43 22 5
43 23 3
43 24 5
43 25 2
43 26 3
43 27 8
43 28 4
43 29 5
43 30 1
43 31 8
43 32 7
43 33 5
43 34 3
43 35 3
43 36 2
43 37 3
43 38 2
43 39 4
43 40 8
43 41 6
43 42 5
44 0 6
44 1 4
44 2 6
44 3 4
44 4 5
44 5 3
44 6 2
44 7 4
44 8 3
44 9 3
44 10 5
44 11 7
44 12 2
44 13 2
44 14 5
44 15 5
44 16 4
44 17 1
44 18 4
44 19 7
44 20 7
44 21 1
44 22 2
44 23 7
44 24 5
44 25 3
44 26 1
44 27 8
44 28 4
44 29 6
44 30 1
44 31 5
44 32 7
44 33 3
44 34 1
44 35 8
44 36 8
44 37 7
44 38 8
44 39 4
44 40 7
44 41 7
44 42 6
44 43 3
45 0 8
45 1 3
45 2 2
45 3 2
45 4 2
45 5 1
45 6 5
45 7 5
45 8 1
45 9 4
45 10 6
45 11 7
45 12 8
45 13 6
45 14 2
45 15 6
45 16 4
45 17 2
45 18 3
45 19 1
45 20 2
45 21 4
45 22 2
45 23 3
45 24 4
45 25 5
45 26 5
45 27 6
45 28 4
45 29 6
45 30 6
45 31 4
45 32 5
45 33 1
45 34 5
45 35 6
45 36 6
45 37 6
45 38 3
45 39 1
45 40 5
45 41 6
45 42 3
45 43 1
45 44 2
46 0 8
46 1 5
46 2 3
46 3 3
46 4 6
46 5 8
46 6 2
46 7 8
46 8 8
46 9 4
46 10 5
46 11 4
46 12 7
46 13 6
46 14 4
46 15 8
46 16 1
46 17 7
46 18 3
46 19 3
46 20 6
46 21 6
46 22 5
46 23 6
46 24 5
46 25 1
46 26 2
46 27 3
46 28 4
46 29 7
46 30 4
46 31 7
46 32 8
46 33 5
46 34 2
46 35 7
46 36 3
46 37 2
46 38 5
46 39 5
46 40 7
46 41 1
46 42 3
46 43 7
46 44 2
46 45 1
47 0 4
47 1 3
47 2 6
47 3 2
47 4 8
47 5 6
47 6 7
47 7 4
47 8 7
47 9 6
47 10 6
47 11 7
47 12 5
47 13 4
47 14 7
47 15 1
47 16 3
47 17 6
47 18 7
47 19 3
47 20 8
47 21 4
47 22 2
47 23 8
47 24 8
47 25 7
47 26 5
47 27 5
47 28 2
47 29 7
47 30 4
47 31 5
47 32 5
47 33 4
47 34 5
47 35 1
47 36 5
47 37 3
47 38 3
47 39 1
47 40 2
47 41 7
47 42 2
47 43 6
47 44 4
47 45 4
47 46 5
48 0 1
48 1 8
48 2 5
48 3 5
48 4 8
48 5 7
48 6 3
48 7 4
48 8 3
48 9 5
48 10 8
48 11 1
48 12 8
48 13 3
48 14 7
48 15 6
48 16 2
48 17 5
48 18 4
48 19 8
48 20 4
48 21 5
48 22 6
48 23 1
48 24 3
48 25 4
48 26 5
48 27 3
48 28 4
48 29 8
48 30 8
48 31 6
48 32 4
48 33 6
48 34 5
48 35 3
48 36 4
48 37 1
48 38 5
48 39 7
48 40 3
48 41 6
48 42 2
48 43 5
48 44 3
48 45 8
48 46 5
48 47 3
49 0 4
49 1 8
49 2 3
49 3 3
49 4 2
49 5 8
49 6 5
49 7 8
49 8 5
49 9 3
49 10 4
49 11 3
49 12 7
49 13 4
49 14 1
49 15 7
49 16 2
49 17 1
49 18 3
49 19 1
49 20 3
49 21 8
49 22 2
49 23 8
49 24 7
49 25 7
49 26 7
49 27 6
49 28 2
49 29 4
49 30 1
49 31 4
49 32 3
49 33 5
49 34 6
49 35 2
49 36 6
49 37 1
49 38 8
49 39 5
49 40 1
49 41 2
49 42 8
49 43 4
49 44 7
49 45 7
49 46 5
49 47 5
49 48 4
50 0 2
50 1 5
50 2 5
50 3 1
50 4 2
50 5 3
50 6 7
50 7 3
50 8 1
50 9 6
50 10 7
50 11 2
50 12 7
50 13 7
50 14 3
50 15 7
50 16 5
50 17 3
50 18 3
50 19 1
50 20 2
50 21 2
50 22 6
50 23 6
50 24 2
50 25 6
50 26 8
50 27 5
50 28 4
50 29 4
50 30 6
50 31 6
50 32 1
50 33 2
50 34 2
50 35 3
50 36 1
50 37 1
50 38 1
50 39 2
50 40 7
50 41 7
50 42 7
50 43 6
50 44 3
50 45 6
50 46 1
50 47 1
50 48 5
50 49 2
51 0 8
51 1 7
51 2 2
51 3 7
51 4 4
51 5 1
51 6 6
51 7 1
51 8 4
51 9 8
51 10 6
51 11 3
51 12 2
51 13 3
51 14 4
51 15 4
51 16 1
51 17 3
51 18 8
51 19 8
51 20 7
51 21 8
51 22 6
51 23 6
51 24 1
51 25 3
51 26 8
51 27 2
51 28 5
51 29 3
51 30 5
51 31 1
51 32 4
51 33 7
51 34 7
51 35 2
51 36 6
51 37 8
51 38 2
51 39 2
51 40 5
51 41 1
51 42 4
51 43 8
51 44 8
51 45 7
51 46 4
51 47 3
51 48 7
51 49 7
51 50 6
52 0 3
52 1 2
52 2 2
52 3 6
52 4 7
52 5 4
52 6 3
52 7 1
52 8 5
52 9 1
52 10 6
52 11 1
52 12 2
52 13 8
52 14 3
52 15 5
52 16 8
52 17 8
52 18 2
52 19 8
52 20 2
52 21 5
52 22 3
52 23 1
52 24 1
52 25 5
52 26 3
52 27 7
52 28 7
52 29 3
52 30 4
52 31 1
52 32 2
52 33 7
52 34 1
52 35 7
52 36 3
52 37 7
52 38 5
52 39 1
52 40 5
52 41 8
52 42 2
52 43 2
52 44 2
52 45 6
52 46 7
52 47 1
52 48 1
52 49 6
52 50 8
52 51 8
53 0 3
53 1 5
53 2 2
53 3 6
53 4 8
53 5 6
53 6 3
53 7 6
53 8 8
53 9 1
53 10 3
53 11 2
53 12 8
53 13 3
53 14 8
53 15 8
53 16 7
53 17 3
53 18 8
53 19 7
53 20 7
53 21 4
53 22 5
53 23 8
53 24 7
53 25 2
53 26 7
53 27 4
53 28 8
53 29 4
53 30 7
53 31 8
53 32 6
53 33 7
53 34 6
53 35 5
53 36 5
53 37 4
53 38 2
53 39 5
53 40 8
53 41 4
53 42 4
53 43 8
53 44 1
53 45 4
53 46 3
53 47 8
53 48 1
53 49 3
53 50 3
53 51 7
53 52 8
54 0 6
54 1 1
54 2 5
54 3 8
54 4 6
54 5 7
54 6 8
54 7 8
54 8 2
54 9 3
54 10 2
54 11 4
54 12 3
54 13 8
54 14 1
54 15 6
54 16 4
54 17 6
54 18 7
54 19 3
54 20 2
54 21 6
54 22 3
54 23 2
54 24 7
54 25 7
54 26 4
54 27 1
54 28 8
54 29 5
54 30 1
54 31 2
54 32 6
54 33 7
54 34 7
54 35 8
54 36 3
54 37 3
54 38 8
54 39 6
54 40 6
54 41 1
54 42 5
54 43 5
54 44 5
54 45 1
54 46 2
54 47 1
54 48 1
54 49 5
54 50 4
54 51 5
54 52 1
54 53 3
55 0 7
55 1 1
55 2 7
55 3 2
55 4 1
55 5 8
55 6 5
55 7 5
55 8 1
55 9 1
55 10 1
55 11 2
55 12 6
55 13 5
55 14 8
55 15 5
55 16 5
55 17 6
55 18 4
55 19 5
55 20 4
55 21 7
55 22 1
55 23 8
55 24 6
55 25 2
55 26 8
55 27 2
55 28 8
55 29 8
55 30 5
55 31 6
55 32 6
55 33 1
55 34 6
55 35 5
55 36 4
55 37 8
55 38 7
55 39 5
55 40 3
55 41 1
55 42 1
55 43 7
55 44 5
55 45 1
55 46 3
55 47 5
55 48 2
55 49 3
55 50 7
55 51 3
55 52 3
55 53 2
55 54 3
56 0 1
56 1 5
56 2 8
56 3 1
56 4 3
56 5 2
56 6 7
56 7 4
56 8 2
56 9 1
56 10 7
56 11 3
56 12 6
56 13 3
56 14 5
56 15 5
56 16 7
56 17 7
56 18 8
56 19 4
56 20 7
56 21 8
56 22 1
56 23 3
56 24 1
56 25 6
56 26 6
56 27 1
56 28 5
56 29 8
56 30 7
56 31 5
56 32 6
56 33 3
56 34 7
56 35 4
56 36 7
56 37 5
56 38 2
56 39 7
56 40 8
56 41 2
56 42 3
56 43 1
56 44 2
56 45 5
56 46 2
56 47 8
56 48 1
56 49 4
56 50 2
56 51 3
56 52 3
56 53 8
56 54 1
56 55 4
57 0 3
57 1 7
57 2 6
57 3 6
57 4 8
57 5 3
57 6 5
57 7 2
57 8 4
57 9 6
57 10 8
57 11 5
57 12 6
57 13 3
57 14 7
57 15 7
57 16 2
57 17 7
57 18 6
57 19 1
57 20 8
57 21 5
57 22 3
57 23 7
57 24 4
57 25 4
57 26 4
57 27 3
57 28 8
57 29 2
57 30 2
57 31 8
57 32 8
57 33 7
57 34 1
57 35 1
57 36 1
57 37 4
57 38 4
57 39 8
57 40 5
57 41 8
57 42 4
57 43 5
57 44 8
57 45 3
57 46 7
57 47 6
57 48 8
57 49 4
57 50 8
57 51 2
57 52 8
57 53 6
57 54 6
57 55 3
57 56 5
58 0 3
58 1 8
58 2 8
58 3 6
58 4 6
58 5 1
58 6 7
58 7 8
58 8 5
58 9 4
58 10 7
58 11 4
58 12 3
58 13 8
58 14 6
58 15 4
58 16 8
58 17 8
58 18 6
58 19 7
58 20 8
58 21 1
58 22 6
58 23 3
58 24 1
58 25 2
58 26 3
58 27 7
58 28 7
58 29 4
58 30 8
58 31 2
58 32 3
58 33 5
58 34 2
58 35 7
58 36 6
58 37 6
58 38 4
58 39 5
58 40 3
58 41 5
58 42 5
58 43 6
58 44 5
58 45 2
58 46 2
58 47 8
58 48 2
58 49 1
58 50 8
58 51 8
58 52 1
58 53 3
58 54 8
58 55 6
58 56 3
58 57 4
59 0 1
59 1 4
59 2 4
59 3 5
59 4 5
59 5 4
59 6 4
59 7 8
59 8 8
59 9 5
59 10 5
59 11 4
59 12 3
59 13 3
59 14 7
59 15 8
59 16 7
59 17 1
59 18 7
59 19 1
59 20 2
59 21 6
59 22 4
59 23 4
59 24 3
59 25 1
59 26 8
59 27 4
59 28 4
59 29 6
59 30 7
59 31 4
59 32 3
59 33 1
59 34 4
59 35 4
59 36 8
59 37 6
59 38 1
59 39 3
59 40 7
59 41 4
59 42 6
59 43 8
59 44 1
59 45 7
59 46 5
59 47 5
59 48 7
59 49 4
59 50 2
59 51 8
59 52 4
59 53 8
59 54 8
59 55 7
59 56 8
59 57 5
59 58 1
